ampl/strimko2_069.dat
# Strimko Set #069
param n := 6;

# represent the different streams with integer 1..n
param streams: 1 2 3 4 5 6 :=
  1      1 2 3 3 3 4 
  2      2 1 3 5 4 3 
  3      2 1 3 5 5 4 
  4      2 6 1 6 5 4 
  5      2 6 1 6 4 5 
  6      6 2 6 1 5 4 
;

param num_placed := 8;
param placed: 1 2 3 :=
  1      2 2 4 
  2      2 3 1 
  3      2 4 3 
  4      2 5 2 
  5      3 2 1 
  6      3 5 6 
  7      4 3 5 
  8      4 4 2 
;
