minizinc/strimko2_069.dzn
% Strimko Weekly Set 069
n = 6;
streams = array2d(1..n, 1..n, [
                  1,2,3,3,3,4,
                  2,1,3,5,4,3,
                  2,1,3,5,5,4,
                  2,6,1,6,5,4,
                  2,6,1,6,4,5,
                  6,2,6,1,5,4,
                  ]);

num_placed = 8;
placed = array2d(1..num_placed, 1..3, [
                   2,2,4,
                   2,3,1,
                   2,4,3,
                   2,5,2,
                   3,2,1,
                   3,5,6,
                   4,3,5,
                   4,4,2,
                 ]);
